57
125
87	6
86	4
85	3
84	6
83	5
82	4
81	3
80	4
79	2
78	1
77	2
76	3
75	5
74	4
73	4
72	1
71	2
70	4
69	4
68	2
67	3
66	3
65	1
64	6
63	2
62	4
61	3
60	4
59	7
57	4
56	1
55	3
54	3
53	2
51	2
50	3
49	2
48	1
47	6
46	3
45	2
44	7
43	1
42	7
41	7
40	2
39	7
38	2
35	2
34	5
33	2
32	5
30	1
28	3
27	2
26	4
25	9
